300
200 200
1 140 611
2 140 929
3 140 744
4 139 95
5 138 659
6 138 967
7 137 906
8 137 924
9 137 195
10 137 371
11 136 401
12 136 261
13 136 505
14 135 750
15 135 984
16 135 188
17 135 687
18 135 655
19 133 201
20 133 997
21 133 925
22 132 937
23 132 808
24 131 883
25 131 541
26 130 76
27 129 863
28 129 139
29 129 448
30 128 797
31 127 890
32 127 408
33 127 319
34 126 396
35 126 27
36 125 421
37 125 313
38 125 71
39 124 88
40 124 83
41 123 697
42 122 64
43 122 332
44 121 427
45 121 807
46 120 78
47 119 735
48 119 171
49 119 822
50 119 168
51 118 668
52 118 306
53 117 578
54 116 683
55 116 110
56 116 177
57 116 789
58 116 672
59 115 126
60 115 662
61 115 781
62 114 878
63 114 845
64 114 315
65 113 671
66 113 848
67 113 372
68 113 770
69 113 643
70 112 283
71 111 241
72 111 985
73 111 775
74 110 894
75 110 75
76 108 321
77 108 27
78 107 699
79 107 759
80 106 401
81 106 594
82 106 528
83 106 979
84 106 2
85 106 610
86 105 92
87 105 959
88 105 224
89 104 864
90 104 882
91 104 493
92 103 814
93 103 62
94 103 474
95 103 13
96 102 713
97 101 606
98 101 466
99 100 262
100 99 824
101 99 918
102 98 921
103 98 595
104 98 738
105 97 462
106 97 975
107 96 0
108 96 740
109 96 626
110 95 218
111 95 575
112 94 998
113 94 828
114 94 400
115 94 64
116 94 218
117 93 323
118 93 144
119 92 592
120 92 552
121 92 668
122 92 441
123 91 811
124 91 922
125 91 168
126 90 911
127 90 627
128 89 620
129 88 347
130 88 204
131 87 659
132 86 445
133 86 540
134 85 491
135 84 194
136 84 381
137 84 758
138 83 888
139 82 562
140 82 36
141 81 100
142 81 9
143 81 790
144 81 221
145 81 940
146 81 465
147 81 136
148 80 194
149 79 667
150 78 20
151 78 670
152 78 844
153 78 759
154 78 709
155 77 412
156 77 423
157 77 941
158 76 392
159 74 573
160 74 491
161 74 109
162 74 861
163 73 910
164 72 535
165 72 302
166 71 419
167 71 712
168 71 279
169 70 188
170 70 621
171 69 532
172 69 390
173 68 837
174 68 718
175 67 432
176 67 226
177 67 48
178 67 80
179 65 369
180 65 439
181 65 634
182 64 554
183 64 605
184 64 783
185 63 477
186 62 34
187 61 157
188 61 618
189 60 610
190 59 711
191 59 549
192 58 159
193 58 603
194 58 844
195 57 882
196 57 593
197 56 914
198 56 343
199 56 924
200 56 85
201 55 555
202 54 13
203 54 551
204 54 918
205 54 67
206 53 960
207 53 682
208 53 759
209 53 364
210 51 984
211 51 109
212 51 778
213 51 788
214 50 140
215 49 355
216 49 53
217 49 918
218 48 99
219 48 2
220 47 362
221 47 20
222 45 978
223 45 308
224 45 598
225 44 121
226 44 514
227 44 497
228 44 36
229 44 787
230 44 723
231 43 362
232 43 511
233 42 850
234 41 561
235 41 685
236 41 90
237 41 193
238 41 46
239 41 669
240 40 837
241 40 593
242 39 327
243 39 319
244 38 586
245 38 450
246 38 595
247 37 879
248 37 483
249 37 337
250 37 9
251 37 168
252 36 120
253 36 243
254 35 203
255 35 509
256 35 911
257 35 201
258 34 422
259 34 680
260 34 979
261 33 271
262 33 799
263 33 965
264 33 574
265 32 509
266 32 535
267 32 717
268 31 73
269 31 603
270 31 867
271 31 330
272 31 69
273 31 361
274 30 898
275 29 113
276 29 692
277 29 280
278 28 196
279 28 151
280 26 184
281 26 678
282 26 185
283 26 706
284 26 571
285 25 520
286 25 733
287 24 187
288 24 616
289 24 510
290 23 228
291 22 11
292 22 521
293 21 460
294 21 90
295 21 955
296 20 696
297 20 41
298 20 288
299 20 655
300 20 580
